c Reduced graph for r11_0 generated by Cyril Grelier
p edge 208 2247
e 1 2
e 1 3
e 1 5
e 1 7
e 1 9
e 1 11
e 1 13
e 1 14
e 1 16
e 1 19
e 1 23
e 1 25
e 1 31
e 1 33
e 1 35
e 1 46
e 1 54
e 1 59
e 1 67
e 1 68
e 1 69
e 1 70
e 1 103
e 1 104
e 1 107
e 1 169
e 2 4
e 2 6
e 2 8
e 2 10
e 2 12
e 2 13
e 2 14
e 2 20
e 2 22
e 2 24
e 2 26
e 2 31
e 2 34
e 2 36
e 2 46
e 2 55
e 2 60
e 2 61
e 2 67
e 2 68
e 2 69
e 2 70
e 2 103
e 2 104
e 2 169
e 3 4
e 3 5
e 3 7
e 3 9
e 3 11
e 3 15
e 3 16
e 3 19
e 3 23
e 3 25
e 3 32
e 3 33
e 3 35
e 3 47
e 3 48
e 3 54
e 3 59
e 3 71
e 3 72
e 3 73
e 3 74
e 3 105
e 3 106
e 3 107
e 3 144
e 4 6
e 4 8
e 4 10
e 4 12
e 4 15
e 4 20
e 4 22
e 4 24
e 4 26
e 4 32
e 4 34
e 4 36
e 4 47
e 4 48
e 4 55
e 4 60
e 4 61
e 4 71
e 4 72
e 4 73
e 4 74
e 4 105
e 4 106
e 4 144
e 5 6
e 5 7
e 5 9
e 5 11
e 5 16
e 5 17
e 5 18
e 5 19
e 5 23
e 5 25
e 5 33
e 5 35
e 5 37
e 5 52
e 5 54
e 5 59
e 5 81
e 5 82
e 5 83
e 5 107
e 5 117
e 5 118
e 5 119
e 5 178
e 6 8
e 6 10
e 6 12
e 6 17
e 6 18
e 6 20
e 6 22
e 6 24
e 6 26
e 6 34
e 6 36
e 6 37
e 6 52
e 6 55
e 6 60
e 6 61
e 6 81
e 6 82
e 6 83
e 6 117
e 6 118
e 6 119
e 6 178
e 7 8
e 7 9
e 7 11
e 7 16
e 7 19
e 7 21
e 7 23
e 7 25
e 7 33
e 7 35
e 7 54
e 7 56
e 7 57
e 7 59
e 7 87
e 7 88
e 7 89
e 7 90
e 7 107
e 7 124
e 7 125
e 7 126
e 7 159
e 8 10
e 8 12
e 8 20
e 8 21
e 8 22
e 8 24
e 8 26
e 8 34
e 8 36
e 8 55
e 8 56
e 8 57
e 8 60
e 8 61
e 8 87
e 8 88
e 8 89
e 8 90
e 8 124
e 8 125
e 8 126
e 8 159
e 9 10
e 9 11
e 9 16
e 9 19
e 9 23
e 9 25
e 9 27
e 9 28
e 9 33
e 9 35
e 9 44
e 9 54
e 9 59
e 9 63
e 9 64
e 9 98
e 9 99
e 9 100
e 9 107
e 9 140
e 9 141
e 9 193
e 10 12
e 10 20
e 10 22
e 10 24
e 10 26
e 10 27
e 10 28
e 10 34
e 10 36
e 10 44
e 10 55
e 10 60
e 10 61
e 10 63
e 10 64
e 10 98
e 10 99
e 10 100
e 10 140
e 10 141
e 10 193
e 11 12
e 11 16
e 11 19
e 11 23
e 11 25
e 11 29
e 11 30
e 11 33
e 11 35
e 11 45
e 11 54
e 11 59
e 11 65
e 11 66
e 11 101
e 11 102
e 11 107
e 11 142
e 11 143
e 11 168
e 11 194
e 12 20
e 12 22
e 12 24
e 12 26
e 12 29
e 12 30
e 12 34
e 12 36
e 12 45
e 12 55
e 12 60
e 12 61
e 12 65
e 12 66
e 12 101
e 12 102
e 12 142
e 12 143
e 12 168
e 12 194
e 13 14
e 13 15
e 13 17
e 13 27
e 13 29
e 13 31
e 13 40
e 13 42
e 13 46
e 13 49
e 13 51
e 13 67
e 13 68
e 13 69
e 13 70
e 13 75
e 13 85
e 13 91
e 13 93
e 13 103
e 13 104
e 13 145
e 13 169
e 14 18
e 14 21
e 14 28
e 14 30
e 14 31
e 14 38
e 14 39
e 14 41
e 14 43
e 14 46
e 14 50
e 14 67
e 14 68
e 14 69
e 14 70
e 14 76
e 14 86
e 14 92
e 14 94
e 14 103
e 14 104
e 14 169
e 15 17
e 15 27
e 15 29
e 15 32
e 15 40
e 15 42
e 15 47
e 15 48
e 15 49
e 15 51
e 15 71
e 15 72
e 15 73
e 15 74
e 15 75
e 15 85
e 15 91
e 15 93
e 15 105
e 15 106
e 15 144
e 15 145
e 16 19
e 16 23
e 16 25
e 16 33
e 16 35
e 16 54
e 16 59
e 16 78
e 16 79
e 16 107
e 16 111
e 16 112
e 16 113
e 16 114
e 16 115
e 16 150
e 16 151
e 16 152
e 16 176
e 17 18
e 17 27
e 17 29
e 17 37
e 17 40
e 17 42
e 17 49
e 17 51
e 17 52
e 17 75
e 17 81
e 17 82
e 17 83
e 17 85
e 17 91
e 17 93
e 17 117
e 17 118
e 17 119
e 17 145
e 17 178
e 18 21
e 18 28
e 18 30
e 18 37
e 18 38
e 18 39
e 18 41
e 18 43
e 18 50
e 18 52
e 18 76
e 18 81
e 18 82
e 18 83
e 18 86
e 18 92
e 18 94
e 18 117
e 18 118
e 18 119
e 18 178
e 19 20
e 19 23
e 19 25
e 19 33
e 19 35
e 19 38
e 19 53
e 19 54
e 19 59
e 19 84
e 19 107
e 19 120
e 19 121
e 19 122
e 19 123
e 19 157
e 19 179
e 19 199
e 20 22
e 20 24
e 20 26
e 20 34
e 20 36
e 20 38
e 20 53
e 20 55
e 20 60
e 20 61
e 20 84
e 20 120
e 20 121
e 20 122
e 20 123
e 20 157
e 20 179
e 20 199
e 21 28
e 21 30
e 21 38
e 21 39
e 21 41
e 21 43
e 21 50
e 21 56
e 21 57
e 21 76
e 21 86
e 21 87
e 21 88
e 21 89
e 21 90
e 21 92
e 21 94
e 21 124
e 21 125
e 21 126
e 21 159
e 22 24
e 22 26
e 22 34
e 22 36
e 22 39
e 22 55
e 22 58
e 22 60
e 22 61
e 22 127
e 22 128
e 22 129
e 22 130
e 22 131
e 22 160
e 22 161
e 22 162
e 22 201
e 23 24
e 23 25
e 23 33
e 23 35
e 23 40
e 23 41
e 23 54
e 23 59
e 23 62
e 23 95
e 23 96
e 23 107
e 23 133
e 23 134
e 23 135
e 23 165
e 23 191
e 24 26
e 24 34
e 24 36
e 24 40
e 24 41
e 24 55
e 24 60
e 24 61
e 24 62
e 24 95
e 24 96
e 24 133
e 24 134
e 24 135
e 24 165
e 24 191
e 25 26
e 25 33
e 25 35
e 25 42
e 25 43
e 25 54
e 25 59
e 25 97
e 25 107
e 25 136
e 25 137
e 25 138
e 25 139
e 25 166
e 25 167
e 25 192
e 26 34
e 26 36
e 26 42
e 26 43
e 26 55
e 26 60
e 26 61
e 26 97
e 26 136
e 26 137
e 26 138
e 26 139
e 26 166
e 26 167
e 26 192
e 27 28
e 27 29
e 27 40
e 27 42
e 27 44
e 27 49
e 27 51
e 27 63
e 27 64
e 27 75
e 27 85
e 27 91
e 27 93
e 27 98
e 27 99
e 27 100
e 27 140
e 27 141
e 27 145
e 27 193
e 28 30
e 28 38
e 28 39
e 28 41
e 28 43
e 28 44
e 28 50
e 28 63
e 28 64
e 28 76
e 28 86
e 28 92
e 28 94
e 28 98
e 28 99
e 28 100
e 28 140
e 28 141
e 28 193
e 29 30
e 29 40
e 29 42
e 29 45
e 29 49
e 29 51
e 29 65
e 29 66
e 29 75
e 29 85
e 29 91
e 29 93
e 29 101
e 29 102
e 29 142
e 29 143
e 29 145
e 29 168
e 29 194
e 30 38
e 30 39
e 30 41
e 30 43
e 30 45
e 30 50
e 30 65
e 30 66
e 30 76
e 30 86
e 30 92
e 30 94
e 30 101
e 30 102
e 30 142
e 30 143
e 30 168
e 30 194
e 31 32
e 31 37
e 31 44
e 31 45
e 31 46
e 31 53
e 31 58
e 31 62
e 31 67
e 31 68
e 31 69
e 31 70
e 31 77
e 31 80
e 31 103
e 31 104
e 31 108
e 31 132
e 31 169
e 31 170
e 32 37
e 32 44
e 32 45
e 32 47
e 32 48
e 32 53
e 32 58
e 32 62
e 32 71
e 32 72
e 32 73
e 32 74
e 32 77
e 32 80
e 32 105
e 32 106
e 32 108
e 32 132
e 32 144
e 32 170
e 33 34
e 33 35
e 33 49
e 33 50
e 33 54
e 33 59
e 33 77
e 33 107
e 33 109
e 33 110
e 33 147
e 33 148
e 33 149
e 33 175
e 34 36
e 34 49
e 34 50
e 34 55
e 34 60
e 34 61
e 34 77
e 34 109
e 34 110
e 34 147
e 34 148
e 34 149
e 34 175
e 35 36
e 35 51
e 35 54
e 35 59
e 35 80
e 35 107
e 35 116
e 35 153
e 35 154
e 35 155
e 35 156
e 35 177
e 35 198
e 36 51
e 36 55
e 36 60
e 36 61
e 36 80
e 36 116
e 36 153
e 36 154
e 36 155
e 36 156
e 36 177
e 36 198
e 37 44
e 37 45
e 37 52
e 37 53
e 37 58
e 37 62
e 37 77
e 37 80
e 37 81
e 37 82
e 37 83
e 37 108
e 37 117
e 37 118
e 37 119
e 37 132
e 37 170
e 37 178
e 38 39
e 38 41
e 38 43
e 38 50
e 38 53
e 38 76
e 38 84
e 38 86
e 38 92
e 38 94
e 38 120
e 38 121
e 38 122
e 38 123
e 38 157
e 38 179
e 38 199
e 39 41
e 39 43
e 39 50
e 39 58
e 39 76
e 39 86
e 39 92
e 39 94
e 39 127
e 39 128
e 39 129
e 39 130
e 39 131
e 39 160
e 39 161
e 39 162
e 39 201
e 40 41
e 40 42
e 40 49
e 40 51
e 40 62
e 40 75
e 40 85
e 40 91
e 40 93
e 40 95
e 40 96
e 40 133
e 40 134
e 40 135
e 40 145
e 40 165
e 40 191
e 41 43
e 41 50
e 41 62
e 41 76
e 41 86
e 41 92
e 41 94
e 41 95
e 41 96
e 41 133
e 41 134
e 41 135
e 41 165
e 41 191
e 42 43
e 42 49
e 42 51
e 42 75
e 42 85
e 42 91
e 42 93
e 42 97
e 42 136
e 42 137
e 42 138
e 42 139
e 42 145
e 42 166
e 42 167
e 42 192
e 43 50
e 43 76
e 43 86
e 43 92
e 43 94
e 43 97
e 43 136
e 43 137
e 43 138
e 43 139
e 43 166
e 43 167
e 43 192
e 44 45
e 44 53
e 44 58
e 44 62
e 44 63
e 44 64
e 44 77
e 44 80
e 44 98
e 44 99
e 44 100
e 44 108
e 44 132
e 44 140
e 44 141
e 44 170
e 44 193
e 45 53
e 45 58
e 45 62
e 45 65
e 45 66
e 45 77
e 45 80
e 45 101
e 45 102
e 45 108
e 45 132
e 45 142
e 45 143
e 45 168
e 45 170
e 45 194
e 46 47
e 46 56
e 46 63
e 46 65
e 46 67
e 46 68
e 46 69
e 46 70
e 46 78
e 46 84
e 46 95
e 46 103
e 46 104
e 46 109
e 46 116
e 46 158
e 46 169
e 46 195
e 47 48
e 47 56
e 47 63
e 47 65
e 47 71
e 47 72
e 47 73
e 47 74
e 47 78
e 47 84
e 47 95
e 47 105
e 47 106
e 47 109
e 47 116
e 47 144
e 47 158
e 47 195
e 48 52
e 48 57
e 48 64
e 48 66
e 48 71
e 48 72
e 48 73
e 48 74
e 48 79
e 48 96
e 48 97
e 48 105
e 48 106
e 48 110
e 48 144
e 48 146
e 48 163
e 48 164
e 49 50
e 49 51
e 49 75
e 49 77
e 49 85
e 49 91
e 49 93
e 49 109
e 49 110
e 49 145
e 49 147
e 49 148
e 49 149
e 49 175
e 50 76
e 50 77
e 50 86
e 50 92
e 50 94
e 50 109
e 50 110
e 50 147
e 50 148
e 50 149
e 50 175
e 51 75
e 51 80
e 51 85
e 51 91
e 51 93
e 51 116
e 51 145
e 51 153
e 51 154
e 51 155
e 51 156
e 51 177
e 51 198
e 52 57
e 52 64
e 52 66
e 52 79
e 52 81
e 52 82
e 52 83
e 52 96
e 52 97
e 52 110
e 52 117
e 52 118
e 52 119
e 52 146
e 52 163
e 52 164
e 52 178
e 53 58
e 53 62
e 53 77
e 53 80
e 53 84
e 53 108
e 53 120
e 53 121
e 53 122
e 53 123
e 53 132
e 53 157
e 53 170
e 53 179
e 53 199
e 54 55
e 54 59
e 54 85
e 54 86
e 54 107
e 54 158
e 54 180
e 54 181
e 54 182
e 54 183
e 54 200
e 55 60
e 55 61
e 55 85
e 55 86
e 55 158
e 55 180
e 55 181
e 55 182
e 55 183
e 55 200
e 56 57
e 56 63
e 56 65
e 56 78
e 56 84
e 56 87
e 56 88
e 56 89
e 56 90
e 56 95
e 56 109
e 56 116
e 56 124
e 56 125
e 56 126
e 56 158
e 56 159
e 56 195
e 57 64
e 57 66
e 57 79
e 57 87
e 57 88
e 57 89
e 57 90
e 57 96
e 57 97
e 57 110
e 57 124
e 57 125
e 57 126
e 57 146
e 57 159
e 57 163
e 57 164
e 58 62
e 58 77
e 58 80
e 58 108
e 58 127
e 58 128
e 58 129
e 58 130
e 58 131
e 58 132
e 58 160
e 58 161
e 58 162
e 58 170
e 58 201
e 59 60
e 59 91
e 59 92
e 59 107
e 59 163
e 59 184
e 59 185
e 59 186
e 59 206
e 59 207
e 60 61
e 60 91
e 60 92
e 60 163
e 60 184
e 60 185
e 60 186
e 60 206
e 60 207
e 61 93
e 61 94
e 61 132
e 61 164
e 61 187
e 61 188
e 61 189
e 61 190
e 61 202
e 62 77
e 62 80
e 62 95
e 62 96
e 62 108
e 62 132
e 62 133
e 62 134
e 62 135
e 62 165
e 62 170
e 62 191
e 63 64
e 63 65
e 63 78
e 63 84
e 63 95
e 63 98
e 63 99
e 63 100
e 63 109
e 63 116
e 63 140
e 63 141
e 63 158
e 63 193
e 63 195
e 64 66
e 64 79
e 64 96
e 64 97
e 64 98
e 64 99
e 64 100
e 64 110
e 64 140
e 64 141
e 64 146
e 64 163
e 64 164
e 64 193
e 65 66
e 65 78
e 65 84
e 65 95
e 65 101
e 65 102
e 65 109
e 65 116
e 65 142
e 65 143
e 65 158
e 65 168
e 65 194
e 65 195
e 66 79
e 66 96
e 66 97
e 66 101
e 66 102
e 66 110
e 66 142
e 66 143
e 66 146
e 66 163
e 66 164
e 66 168
e 66 194
e 67 68
e 67 69
e 67 70
e 67 98
e 67 103
e 67 104
e 67 111
e 67 120
e 67 127
e 67 147
e 67 153
e 67 169
e 67 171
e 67 184
e 67 187
e 67 203
e 68 69
e 68 70
e 68 71
e 68 81
e 68 103
e 68 104
e 68 112
e 68 121
e 68 128
e 68 133
e 68 136
e 68 154
e 68 169
e 68 180
e 68 185
e 69 70
e 69 72
e 69 87
e 69 101
e 69 103
e 69 104
e 69 113
e 69 122
e 69 134
e 69 148
e 69 155
e 69 169
e 69 172
e 69 188
e 70 74
e 70 83
e 70 90
e 70 100
e 70 102
e 70 103
e 70 104
e 70 115
e 70 131
e 70 139
e 70 169
e 70 183
e 70 205
e 71 72
e 71 73
e 71 74
e 71 81
e 71 105
e 71 106
e 71 112
e 71 121
e 71 128
e 71 133
e 71 136
e 71 144
e 71 154
e 71 180
e 71 185
e 72 73
e 72 74
e 72 87
e 72 101
e 72 105
e 72 106
e 72 113
e 72 122
e 72 134
e 72 144
e 72 148
e 72 155
e 72 172
e 72 188
e 73 74
e 73 88
e 73 105
e 73 106
e 73 114
e 73 129
e 73 135
e 73 137
e 73 144
e 73 149
e 73 173
e 73 181
e 73 186
e 73 189
e 74 83
e 74 90
e 74 100
e 74 102
e 74 105
e 74 106
e 74 115
e 74 131
e 74 139
e 74 144
e 74 183
e 74 205
e 75 76
e 75 85
e 75 91
e 75 93
e 75 108
e 75 145
e 75 146
e 75 171
e 75 172
e 75 173
e 75 174
e 75 196
e 75 197
e 76 86
e 76 92
e 76 94
e 76 108
e 76 146
e 76 171
e 76 172
e 76 173
e 76 174
e 76 196
e 76 197
e 77 80
e 77 108
e 77 109
e 77 110
e 77 132
e 77 147
e 77 148
e 77 149
e 77 170
e 77 175
e 78 79
e 78 84
e 78 95
e 78 109
e 78 111
e 78 112
e 78 113
e 78 114
e 78 115
e 78 116
e 78 150
e 78 151
e 78 152
e 78 158
e 78 176
e 78 195
e 79 96
e 79 97
e 79 110
e 79 111
e 79 112
e 79 113
e 79 114
e 79 115
e 79 146
e 79 150
e 79 151
e 79 152
e 79 163
e 79 164
e 79 176
e 80 108
e 80 116
e 80 132
e 80 153
e 80 154
e 80 155
e 80 156
e 80 170
e 80 177
e 80 198
e 81 82
e 81 83
e 81 112
e 81 117
e 81 118
e 81 119
e 81 121
e 81 128
e 81 133
e 81 136
e 81 154
e 81 178
e 81 180
e 81 185
e 82 83
e 82 89
e 82 99
e 82 117
e 82 118
e 82 119
e 82 123
e 82 130
e 82 138
e 82 156
e 82 174
e 82 178
e 82 182
e 82 190
e 82 204
e 83 90
e 83 100
e 83 102
e 83 115
e 83 117
e 83 118
e 83 119
e 83 131
e 83 139
e 83 178
e 83 183
e 83 205
e 84 95
e 84 109
e 84 116
e 84 120
e 84 121
e 84 122
e 84 123
e 84 157
e 84 158
e 84 179
e 84 195
e 84 199
e 85 86
e 85 91
e 85 93
e 85 145
e 85 158
e 85 180
e 85 181
e 85 182
e 85 183
e 85 200
e 86 92
e 86 94
e 86 158
e 86 180
e 86 181
e 86 182
e 86 183
e 86 200
e 87 88
e 87 89
e 87 90
e 87 101
e 87 113
e 87 122
e 87 124
e 87 125
e 87 126
e 87 134
e 87 148
e 87 155
e 87 159
e 87 172
e 87 188
e 88 89
e 88 90
e 88 114
e 88 124
e 88 125
e 88 126
e 88 129
e 88 135
e 88 137
e 88 149
e 88 159
e 88 173
e 88 181
e 88 186
e 88 189
e 89 90
e 89 99
e 89 123
e 89 124
e 89 125
e 89 126
e 89 130
e 89 138
e 89 156
e 89 159
e 89 174
e 89 182
e 89 190
e 89 204
e 90 100
e 90 102
e 90 115
e 90 124
e 90 125
e 90 126
e 90 131
e 90 139
e 90 159
e 90 183
e 90 205
e 91 92
e 91 93
e 91 145
e 91 163
e 91 184
e 91 185
e 91 186
e 91 206
e 91 207
e 92 94
e 92 163
e 92 184
e 92 185
e 92 186
e 92 206
e 92 207
e 93 94
e 93 132
e 93 145
e 93 164
e 93 187
e 93 188
e 93 189
e 93 190
e 93 202
e 94 132
e 94 164
e 94 187
e 94 188
e 94 189
e 94 190
e 94 202
e 95 96
e 95 109
e 95 116
e 95 133
e 95 134
e 95 135
e 95 158
e 95 165
e 95 191
e 95 195
e 96 97
e 96 110
e 96 133
e 96 134
e 96 135
e 96 146
e 96 163
e 96 164
e 96 165
e 96 191
e 97 110
e 97 136
e 97 137
e 97 138
e 97 139
e 97 146
e 97 163
e 97 164
e 97 166
e 97 167
e 97 192
e 98 99
e 98 100
e 98 111
e 98 120
e 98 127
e 98 140
e 98 141
e 98 147
e 98 153
e 98 171
e 98 184
e 98 187
e 98 193
e 98 203
e 99 100
e 99 123
e 99 130
e 99 138
e 99 140
e 99 141
e 99 156
e 99 174
e 99 182
e 99 190
e 99 193
e 99 204
e 100 102
e 100 115
e 100 131
e 100 139
e 100 140
e 100 141
e 100 183
e 100 193
e 100 205
e 101 102
e 101 113
e 101 122
e 101 134
e 101 142
e 101 143
e 101 148
e 101 155
e 101 168
e 101 172
e 101 188
e 101 194
e 102 115
e 102 131
e 102 139
e 102 142
e 102 143
e 102 168
e 102 183
e 102 194
e 102 205
e 103 104
e 103 106
e 103 118
e 103 125
e 103 140
e 103 142
e 103 151
e 103 157
e 103 161
e 103 169
e 103 202
e 104 119
e 104 126
e 104 141
e 104 143
e 104 152
e 104 162
e 104 167
e 104 169
e 104 175
e 104 197
e 105 106
e 105 117
e 105 124
e 105 144
e 105 150
e 105 160
e 105 165
e 105 166
e 105 177
e 105 196
e 105 200
e 106 118
e 106 125
e 106 140
e 106 142
e 106 144
e 106 151
e 106 157
e 106 161
e 106 202
e 107 145
e 107 170
e 107 195
e 107 203
e 107 204
e 107 205
e 107 208
e 108 132
e 108 146
e 108 170
e 108 171
e 108 172
e 108 173
e 108 174
e 108 196
e 108 197
e 109 110
e 109 116
e 109 147
e 109 148
e 109 149
e 109 158
e 109 175
e 109 195
e 110 146
e 110 147
e 110 148
e 110 149
e 110 163
e 110 164
e 110 175
e 111 112
e 111 113
e 111 114
e 111 115
e 111 120
e 111 127
e 111 147
e 111 150
e 111 151
e 111 152
e 111 153
e 111 171
e 111 176
e 111 184
e 111 187
e 111 203
e 112 113
e 112 114
e 112 115
e 112 121
e 112 128
e 112 133
e 112 136
e 112 150
e 112 151
e 112 152
e 112 154
e 112 176
e 112 180
e 112 185
e 113 114
e 113 115
e 113 122
e 113 134
e 113 148
e 113 150
e 113 151
e 113 152
e 113 155
e 113 172
e 113 176
e 113 188
e 114 115
e 114 129
e 114 135
e 114 137
e 114 149
e 114 150
e 114 151
e 114 152
e 114 173
e 114 176
e 114 181
e 114 186
e 114 189
e 115 131
e 115 139
e 115 150
e 115 151
e 115 152
e 115 176
e 115 183
e 115 205
e 116 153
e 116 154
e 116 155
e 116 156
e 116 158
e 116 177
e 116 195
e 116 198
e 117 118
e 117 119
e 117 124
e 117 150
e 117 160
e 117 165
e 117 166
e 117 177
e 117 178
e 117 196
e 117 200
e 118 119
e 118 125
e 118 140
e 118 142
e 118 151
e 118 157
e 118 161
e 118 178
e 118 202
e 119 126
e 119 141
e 119 143
e 119 152
e 119 162
e 119 167
e 119 175
e 119 178
e 119 197
e 120 121
e 120 122
e 120 123
e 120 127
e 120 147
e 120 153
e 120 157
e 120 171
e 120 179
e 120 184
e 120 187
e 120 199
e 120 203
e 121 122
e 121 123
e 121 128
e 121 133
e 121 136
e 121 154
e 121 157
e 121 179
e 121 180
e 121 185
e 121 199
e 122 123
e 122 134
e 122 148
e 122 155
e 122 157
e 122 172
e 122 179
e 122 188
e 122 199
e 123 130
e 123 138
e 123 156
e 123 157
e 123 174
e 123 179
e 123 182
e 123 190
e 123 199
e 123 204
e 124 125
e 124 126
e 124 150
e 124 159
e 124 160
e 124 165
e 124 166
e 124 177
e 124 196
e 124 200
e 125 126
e 125 140
e 125 142
e 125 151
e 125 157
e 125 159
e 125 161
e 125 202
e 126 141
e 126 143
e 126 152
e 126 159
e 126 162
e 126 167
e 126 175
e 126 197
e 127 128
e 127 129
e 127 130
e 127 131
e 127 147
e 127 153
e 127 160
e 127 161
e 127 162
e 127 171
e 127 184
e 127 187
e 127 201
e 127 203
e 128 129
e 128 130
e 128 131
e 128 133
e 128 136
e 128 154
e 128 160
e 128 161
e 128 162
e 128 180
e 128 185
e 128 201
e 129 130
e 129 131
e 129 135
e 129 137
e 129 149
e 129 160
e 129 161
e 129 162
e 129 173
e 129 181
e 129 186
e 129 189
e 129 201
e 130 131
e 130 138
e 130 156
e 130 160
e 130 161
e 130 162
e 130 174
e 130 182
e 130 190
e 130 201
e 130 204
e 131 139
e 131 160
e 131 161
e 131 162
e 131 183
e 131 201
e 131 205
e 132 164
e 132 170
e 132 187
e 132 188
e 132 189
e 132 190
e 132 202
e 133 134
e 133 135
e 133 136
e 133 154
e 133 165
e 133 180
e 133 185
e 133 191
e 134 135
e 134 148
e 134 155
e 134 165
e 134 172
e 134 188
e 134 191
e 135 137
e 135 149
e 135 165
e 135 173
e 135 181
e 135 186
e 135 189
e 135 191
e 136 137
e 136 138
e 136 139
e 136 154
e 136 166
e 136 167
e 136 180
e 136 185
e 136 192
e 137 138
e 137 139
e 137 149
e 137 166
e 137 167
e 137 173
e 137 181
e 137 186
e 137 189
e 137 192
e 138 139
e 138 156
e 138 166
e 138 167
e 138 174
e 138 182
e 138 190
e 138 192
e 138 204
e 139 166
e 139 167
e 139 183
e 139 192
e 139 205
e 140 141
e 140 142
e 140 151
e 140 157
e 140 161
e 140 193
e 140 202
e 141 143
e 141 152
e 141 162
e 141 167
e 141 175
e 141 193
e 141 197
e 142 143
e 142 151
e 142 157
e 142 161
e 142 168
e 142 194
e 142 202
e 143 152
e 143 162
e 143 167
e 143 168
e 143 175
e 143 194
e 143 197
e 144 159
e 144 168
e 144 176
e 144 179
e 144 191
e 144 192
e 144 198
e 144 206
e 145 170
e 145 195
e 145 203
e 145 204
e 145 205
e 145 208
e 146 163
e 146 164
e 146 171
e 146 172
e 146 173
e 146 174
e 146 196
e 146 197
e 147 148
e 147 149
e 147 153
e 147 171
e 147 175
e 147 184
e 147 187
e 147 203
e 148 149
e 148 155
e 148 172
e 148 175
e 148 188
e 149 173
e 149 175
e 149 181
e 149 186
e 149 189
e 150 151
e 150 152
e 150 160
e 150 165
e 150 166
e 150 176
e 150 177
e 150 196
e 150 200
e 151 152
e 151 157
e 151 161
e 151 176
e 151 202
e 152 162
e 152 167
e 152 175
e 152 176
e 152 197
e 153 154
e 153 155
e 153 156
e 153 171
e 153 177
e 153 184
e 153 187
e 153 198
e 153 203
e 154 155
e 154 156
e 154 177
e 154 180
e 154 185
e 154 198
e 155 156
e 155 172
e 155 177
e 155 188
e 155 198
e 156 174
e 156 177
e 156 182
e 156 190
e 156 198
e 156 204
e 157 161
e 157 179
e 157 199
e 157 202
e 158 180
e 158 181
e 158 182
e 158 183
e 158 195
e 158 200
e 159 168
e 159 176
e 159 179
e 159 191
e 159 192
e 159 198
e 159 206
e 160 161
e 160 162
e 160 165
e 160 166
e 160 177
e 160 196
e 160 200
e 160 201
e 161 162
e 161 201
e 161 202
e 162 167
e 162 175
e 162 197
e 162 201
e 163 164
e 163 184
e 163 185
e 163 186
e 163 206
e 163 207
e 164 187
e 164 188
e 164 189
e 164 190
e 164 202
e 165 166
e 165 177
e 165 191
e 165 196
e 165 200
e 166 167
e 166 177
e 166 192
e 166 196
e 166 200
e 167 175
e 167 192
e 167 197
e 168 176
e 168 179
e 168 191
e 168 192
e 168 194
e 168 198
e 168 206
e 169 178
e 169 193
e 169 194
e 169 199
e 169 201
e 169 207
e 169 208
e 170 195
e 170 203
e 170 204
e 170 205
e 170 208
e 171 172
e 171 173
e 171 174
e 171 184
e 171 187
e 171 196
e 171 197
e 171 203
e 172 173
e 172 174
e 172 188
e 172 196
e 172 197
e 173 174
e 173 181
e 173 186
e 173 189
e 173 196
e 173 197
e 174 182
e 174 190
e 174 196
e 174 197
e 174 204
e 175 197
e 176 179
e 176 191
e 176 192
e 176 198
e 176 206
e 177 196
e 177 198
e 177 200
e 178 193
e 178 194
e 178 199
e 178 201
e 178 207
e 178 208
e 179 191
e 179 192
e 179 198
e 179 199
e 179 206
e 180 181
e 180 182
e 180 183
e 180 185
e 180 200
e 181 182
e 181 183
e 181 186
e 181 189
e 181 200
e 182 183
e 182 190
e 182 200
e 182 204
e 183 200
e 183 205
e 184 185
e 184 186
e 184 187
e 184 203
e 184 206
e 184 207
e 185 186
e 185 206
e 185 207
e 186 189
e 186 206
e 186 207
e 187 188
e 187 189
e 187 190
e 187 202
e 187 203
e 188 189
e 188 190
e 188 202
e 189 190
e 189 202
e 190 202
e 190 204
e 191 192
e 191 198
e 191 206
e 192 198
e 192 206
e 193 194
e 193 199
e 193 201
e 193 207
e 193 208
e 194 199
e 194 201
e 194 207
e 194 208
e 195 203
e 195 204
e 195 205
e 195 208
e 196 197
e 196 200
e 198 206
e 199 201
e 199 207
e 199 208
e 201 207
e 201 208
e 203 204
e 203 205
e 203 208
e 204 205
e 204 208
e 205 208
e 206 207
e 207 208
